\ LP format - for model browsing. Use MPS format to capture full model detail.
Minimize
  0 B33(0) + 0 B35(0) + 0 B37(0) + 0 B38(0) + 0 B41(0) + 0 B44(0) + 0 B47(0)
   + 0 B49(0) + 0 B51(0) + 0 B53(0) + 0 B58(0) + 0 B60(0) + 0 B63(0)
   + 0 B65(0) + 0 B66(0) + 0 B69(0) + 0 B72(0) + 0 B73(0) + 0 B75(0)
   + 0 B78(0) + 0 B79(0) + 0 B80(0) + 0 B81(0) + 0 B82(0) + 0 B83(0)
   + 0 B85(0) + 0 B86(0) + 0 B89(0) + 0 B92(0) + 0 B93(0) + 0 B94(0)
   + 0 B95(0) + 0 B96(0) + 0 B97(0) + 0 B99(0) + 0 B102(0) + 0 B103(0)
   + 0 B105(0) + 0 B108(0) + 0 B109(0) + 0 B110(0) + 0 B111(0) + 0 B113(0)
   + 0 B114(0) + 0 B117(0) + 0 B118(0) + 0 B120(0) + 0 B123(0) + 0 B124(0)
   + 0 B125(0) + 0 B126(0) + 0 B127(0) + 0 B128(0) + 0 B129(0) + 0 B131(0)
   + 0 B134(0) + 0 B137(0) + 0 B138(0) + 0 B139(0) + 0 B140(0) + 0 B141(0)
   + 0 B142(0) + 0 B143(0) + 0 B145(0) + 0 B146(0) + 0 B148(0) + 0 B149(0)
   + 0 B150(0) + 0 B153(0) + 0 B154(0) + 0 B155(0) + 0 B156(0) + 0 B157(0)
   + 0 B158(0) + 0 B159(0) + 0 B160(0) + 0 B161(0) + 0 B162(0) + 0 B163(0)
   + 0 B165(0) + 0 B166(0) + 0 B168(0) + 0 B169(0) + 0 B170(0) + 0 B171(0)
   + 0 B172(0) + 0 B173(0) + 0 B174(0) + 0 B175(0) + 0 B176(0) + 0 B177(0)
   + 0 B178(0) + 0 B179(0) + 0 B182(0) + 0 B183(0) + 0 B184(0) + 0 B185(0)
   + 0 B186(0) + 0 B187(0) + 0 B188(0) + 0 B189(0) + 0 B190(0) + 0 B191(0)
   + 0 B192(0) + 0 B193(0) + 0 B194(0) + 0 B197(0) + 0 B198(0) + 0 B199(0)
   + 0 B200(0) + 0 B201(0) + 0 B202(0) + 0 B203(0) + 0 B204(0) + 0 B205(0)
   + 0 B206(0) + 0 B207(0) + 0 B208(0) + 0 B209(0) + 0 B210(0) + 0 B211(0)
   + 0 B213(0) + 0 B214(0) + 0 B215(0) + 0 B216(0) + 0 B217(0) + 0 B218(0)
   + 0 B219(0) + 0 B220(0) + 0 B221(0) + 0 B222(0) + 0 B223(0) + 0 B224(0)
   + 0 B225(0) + 0 B227(0) + 0 B228(0) + 0 B229(0) + 0 B230(0) + 0 B231(0)
   + 0 B232(0) + 0 B233(0) + 0 B234(0) + 0 B235(0) + 0 B236(0) + 0 B237(0)
   + 0 B238(0) + 0 B239(0) + 0 B241(0) + 0 B243(0) + 0 B244(0) + 0 B245(0)
   + 0 B246(0) + 0 B247(0) + 0 B248(0) + 0 B249(0) + 0 B250(0) + 0 B251(0)
   + 0 B252(0) + 0 B253(0) + 0 B254(0) + 0 B255(0) + 0 B257(0) + I291(1)
Subject To
 c0: 150 B0(16) + I258(18) - 1e+07 B292(5) >= -9.99952e+06
 c1: 150 B0(16) + I258(18) - 1e+07 B292(5) <= 480
 c2: 160 B1(14) + I259(16) - 1e+07 B293(5) >= -9.99952e+06
 c3: 160 B1(14) + I259(16) - 1e+07 B293(5) <= 480
 c4: 178 B7(14) + I265(16) - 1e+07 B294(5) >= -9.99952e+06
 c5: 178 B7(14) + I265(16) - 1e+07 B294(5) <= 480
 c6: 95 B8(10) + I266(12) - 1e+07 B295(5) >= -9.99952e+06
 c7: 95 B8(10) + I266(12) - 1e+07 B295(5) <= 480
 c8: 190 B13(16) + I271(18) - 1e+07 B296(5) >= -9.99952e+06
 c9: 190 B13(16) + I271(18) - 1e+07 B296(5) <= 480
 c10: 100 B14(14) + I272(16) - 1e+07 B297(5) >= -9.99952e+06
 c11: 100 B14(14) + I272(16) - 1e+07 B297(5) <= 480
 c12: 153 B15(10) + I273(12) - 1e+07 B298(5) >= -9.99952e+06
 c13: 153 B15(10) + I273(12) - 1e+07 B298(5) <= 480
 c14: 145 B20(14) + I278(16) - 1e+07 B299(5) >= -9.99952e+06
 c15: 145 B20(14) + I278(16) - 1e+07 B299(5) <= 480
 c16: 136 B21(10) + I279(12) - 1e+07 B300(5) >= -9.99952e+06
 c17: 136 B21(10) + I279(12) - 1e+07 B300(5) <= 480
 c18: 110 B25(16) + I283(18) - 1e+07 B301(5) >= -9.99952e+06
 c19: 110 B25(16) + I283(18) - 1e+07 B301(5) <= 480
 c20: 85 B26(10) + I284(12) - 1e+07 B302(5) >= -9.99952e+06
 c21: 85 B26(10) + I284(12) - 1e+07 B302(5) <= 480
 c22: B292(5) >= 0
 c23: B293(5) >= 0
 c24: B294(5) >= 0
 c25: B295(5) >= 0
 c26: B296(5) >= 0
 c27: B297(5) >= 0
 c28: B298(5) >= 0
 c29: B299(5) >= 0
 c30: B300(5) >= 0
 c31: B301(5) >= 0
 c32: B302(5) >= 0
 c33: B0(16) + B1(14) = 1
 c34: B2(15) + B3(15) = 1
 c35: B4(12) + B5(16) + B6(14) = 1
 c36: B7(14) + B8(10) = 1
 c37: B9(13) + B10(15) = 1
 c38: B11(12) + B12(16) = 1
 c39: B13(16) + B14(14) + B15(10) = 1
 c40: B16(13) + B17(15) = 1
 c41: B18(12) + B19(14) = 1
 c42: B20(14) + B21(10) = 1
 c43: B22(13) = 1
 c44: B23(12) + B24(14) = 1
 c45: B25(16) + B26(10) = 1
 c46: B27(15) + B28(13) + B29(15) = 1
 c47: B30(12) + B31(14) + B32(16) = 1
 c48: - 1e+07 B0(16) + I258(18) <= 0
 c49: - 1e+07 B1(14) + I259(16) <= 0
 c50: - 1e+07 B2(15) + I260(16) <= 0
 c51: - 1e+07 B3(15) + I261(16) <= 0
 c52: - 1e+07 B4(12) + I262(12) <= 0
 c53: - 1e+07 B5(16) + I263(16) <= 0
 c54: - 1e+07 B6(14) + I264(14) <= 0
 c55: - 1e+07 B7(14) + I265(16) <= 0
 c56: - 1e+07 B8(10) + I266(12) <= 0
 c57: - 1e+07 B9(13) + I267(14) <= 0
 c58: - 1e+07 B10(15) + I268(16) <= 0
 c59: - 1e+07 B11(12) + I269(12) <= 0
 c60: - 1e+07 B12(16) + I270(16) <= 0
 c61: - 1e+07 B13(16) + I271(18) <= 0
 c62: - 1e+07 B14(14) + I272(16) <= 0
 c63: - 1e+07 B15(10) + I273(12) <= 0
 c64: - 1e+07 B16(13) + I274(14) <= 0
 c65: - 1e+07 B17(15) + I275(16) <= 0
 c66: - 1e+07 B18(12) + I276(12) <= 0
 c67: - 1e+07 B19(14) + I277(14) <= 0
 c68: - 1e+07 B20(14) + I278(16) <= 0
 c69: - 1e+07 B21(10) + I279(12) <= 0
 c70: - 1e+07 B22(13) + I280(14) <= 0
 c71: - 1e+07 B23(12) + I281(12) <= 0
 c72: - 1e+07 B24(14) + I282(14) <= 0
 c73: - 1e+07 B25(16) + I283(18) <= 0
 c74: - 1e+07 B26(10) + I284(12) <= 0
 c75: - 1e+07 B27(15) + I285(16) <= 0
 c76: - 1e+07 B28(13) + I286(14) <= 0
 c77: - 1e+07 B29(15) + I287(16) <= 0
 c78: - 1e+07 B30(12) + I288(12) <= 0
 c79: - 1e+07 B31(14) + I289(14) <= 0
 c80: - 1e+07 B32(16) + I290(16) <= 0
 c81: - 130 B2(15) - 140 B3(15) + I258(18) + I259(16) - I260(16) - I261(16)
   >= 0
 c82: - 147 B4(12) - 122 B5(16) - 145 B6(14) + I260(16) + I261(16)
   - I262(12) - I263(16) - I264(14) >= 0
 c83: - 66 B9(13) - 87 B10(15) + I265(16) + I266(12) - I267(14) - I268(16)
   >= 0
 c84: - 214 B11(12) - 150 B12(16) + I267(14) + I268(16) - I269(12)
   - I270(16) >= 0
 c85: - 180 B16(13) - 105 B17(15) + I271(18) + I272(16) + I273(12)
   - I274(14) - I275(16) >= 0
 c86: - 87 B18(12) - 62 B19(14) + I274(14) + I275(16) - I276(12) - I277(14)
   >= 0
 c87: - 173 B22(13) + I278(16) + I279(12) - I280(14) >= 0
 c88: - 87 B23(12) - 65 B24(14) + I280(14) - I281(12) - I282(14) >= 0
 c89: - 86 B27(15) - 65 B28(13) - 47 B29(15) + I283(18) + I284(12)
   - I285(16) - I286(14) - I287(16) >= 0
 c90: - 128 B30(12) - 122 B31(14) - 145 B32(16) + I285(16) + I286(14)
   + I287(16) - I288(12) - I289(14) - I290(16) >= 0
 c91: - 1e+07 B0(16) - 1e+07 B3(15) + 1e+07 B34(2) - I258(18) + I261(16)
   >= -1.9999301e+07
 c92: - 1e+07 B0(16) - 1e+07 B3(15) - 1e+07 B34(2) + I258(18) - I261(16)
   >= -2.9999662e+07
 c93: - 1e+07 B1(14) - 1e+07 B7(14) + 1e+07 B36(2) - I259(16) + I265(16)
   >= -1.9999012e+07
 c94: - 1e+07 B1(14) - 1e+07 B7(14) - 1e+07 B36(2) + I259(16) - I265(16)
   >= -2.9999603e+07
 c95: - 1e+07 B0(16) - 1e+07 B13(16) + 1e+07 B39(4) - I258(18) + I271(18)
   >= -1.999957e+07
 c96: - 1e+07 B0(16) - 1e+07 B13(16) - 1e+07 B39(4) + I258(18) - I271(18)
   >= -2.9999514e+07
 c97: - 1e+07 B1(14) - 1e+07 B14(14) + 1e+07 B39(4) - I259(16) + I272(16)
   >= -1.9999115e+07
 c98: - 1e+07 B1(14) - 1e+07 B14(14) - 1e+07 B39(4) + I259(16) - I272(16)
   >= -2.9999635e+07
 c99: - 1e+07 B0(16) - 1e+07 B17(15) + 1e+07 B40(2) - I258(18) + I275(16)
   >= -1.9999285e+07
 c100: - 1e+07 B0(16) - 1e+07 B17(15) - 1e+07 B40(2) + I258(18) - I275(16)
   >= -2.9999532e+07
 c101: - 1e+07 B0(16) - 1e+07 B20(14) + 1e+07 B42(2) - I258(18) + I278(16)
   >= -1.9999241e+07
 c102: - 1e+07 B0(16) - 1e+07 B20(14) - 1e+07 B42(2) + I258(18) - I278(16)
   >= -2.9999091e+07
 c103: - 1e+07 B1(14) - 1e+07 B22(13) + 1e+07 B43(2) - I259(16) + I280(14)
   >= -1.9999576e+07
 c104: - 1e+07 B1(14) - 1e+07 B22(13) - 1e+07 B43(2) + I259(16) - I280(14)
   >= -2.9999509e+07
 c105: - 1e+07 B1(14) - 1e+07 B25(16) + 1e+07 B45(2) - I259(16) + I283(18)
   >= -1.9999638e+07
 c106: - 1e+07 B1(14) - 1e+07 B25(16) - 1e+07 B45(2) + I259(16) - I283(18)
   >= -2.9999386e+07
 c107: - 1e+07 B0(16) - 1e+07 B28(13) + 1e+07 B46(4) - I258(18) + I286(14)
   >= -1.9999075e+07
 c108: - 1e+07 B0(16) - 1e+07 B28(13) - 1e+07 B46(4) + I258(18) - I286(14)
   >= -2.9999347e+07
 c109: - 1e+07 B1(14) - 1e+07 B29(15) + 1e+07 B46(4) - I259(16) + I287(16)
   >= -1.999948e+07
 c110: - 1e+07 B1(14) - 1e+07 B29(15) - 1e+07 B46(4) + I259(16) - I287(16)
   >= -2.9999731e+07
 c111: - 1e+07 B0(16) - 1e+07 B3(15) + 1e+07 B48(2) + I258(18) - I261(16)
   >= -1.9999662e+07
 c112: - 1e+07 B0(16) - 1e+07 B3(15) - 1e+07 B48(2) - I258(18) + I261(16)
   >= -2.9999301e+07
 c113: - 1e+07 B2(15) - 1e+07 B5(16) + 1e+07 B50(2) - I260(16) + I263(16)
   >= -1.9999612e+07
 c114: - 1e+07 B2(15) - 1e+07 B5(16) - 1e+07 B50(2) + I260(16) - I263(16)
   >= -2.9999704e+07
 c115: - 1e+07 B2(15) - 1e+07 B9(13) + 1e+07 B52(2) - I260(16) + I267(14)
   >= -1.9999823e+07
 c116: - 1e+07 B2(15) - 1e+07 B9(13) - 1e+07 B52(2) + I260(16) - I267(14)
   >= -2.9999102e+07
 c117: - 1e+07 B3(15) - 1e+07 B13(16) + 1e+07 B54(2) - I261(16) + I271(18)
   >= -1.9999687e+07
 c118: - 1e+07 B3(15) - 1e+07 B13(16) - 1e+07 B54(2) + I261(16) - I271(18)
   >= -2.999874e+07
 c119: - 1e+07 B3(15) - 1e+07 B17(15) + 1e+07 B55(2) - I261(16) + I275(16)
   >= -1.9999711e+07
 c120: - 1e+07 B3(15) - 1e+07 B17(15) - 1e+07 B55(2) + I261(16) - I275(16)
   >= -2.9999735e+07
 c121: - 1e+07 B2(15) - 1e+07 B19(14) + 1e+07 B56(2) - I260(16) + I277(14)
   >= -1.9998855e+07
 c122: - 1e+07 B2(15) - 1e+07 B19(14) - 1e+07 B56(2) + I260(16) - I277(14)
   >= -2.9999743e+07
 c123: - 1e+07 B3(15) - 1e+07 B20(14) + 1e+07 B57(2) - I261(16) + I278(16)
   >= -1.9999374e+07
 c124: - 1e+07 B3(15) - 1e+07 B20(14) - 1e+07 B57(2) + I261(16) - I278(16)
   >= -2.9999263e+07
 c125: - 1e+07 B2(15) - 1e+07 B24(14) + 1e+07 B59(2) - I260(16) + I282(14)
   >= -1.9999585e+07
 c126: - 1e+07 B2(15) - 1e+07 B24(14) - 1e+07 B59(2) + I260(16) - I282(14)
   >= -2.9999647e+07
 c127: - 1e+07 B3(15) - 1e+07 B28(13) + 1e+07 B61(2) - I261(16) + I286(14)
   >= -1.9999596e+07
 c128: - 1e+07 B3(15) - 1e+07 B28(13) - 1e+07 B61(2) + I261(16) - I286(14)
   >= -2.9999635e+07
 c129: - 1e+07 B2(15) - 1e+07 B31(14) + 1e+07 B62(2) - I260(16) + I289(14)
   >= -1.9999626e+07
 c130: - 1e+07 B2(15) - 1e+07 B31(14) - 1e+07 B62(2) + I260(16) - I289(14)
   >= -2.9999182e+07
 c131: - 1e+07 B2(15) - 1e+07 B5(16) + 1e+07 B64(2) + I260(16) - I263(16)
   >= -1.9999704e+07
 c132: - 1e+07 B2(15) - 1e+07 B5(16) - 1e+07 B64(2) - I260(16) + I263(16)
   >= -2.9999612e+07
 c133: - 1e+07 B5(16) - 1e+07 B9(13) + 1e+07 B67(4) - I263(16) + I267(14)
   >= -1.999965e+07
 c134: - 1e+07 B5(16) - 1e+07 B9(13) - 1e+07 B67(4) + I263(16) - I267(14)
   >= -2.9999706e+07
 c135: - 1e+07 B6(14) - 1e+07 B10(15) + 1e+07 B67(4) - I264(14) + I268(16)
   >= -1.9999801e+07
 c136: - 1e+07 B6(14) - 1e+07 B10(15) - 1e+07 B67(4) + I264(14) - I268(16)
   >= -2.9999355e+07
 c137: - 1e+07 B4(12) - 1e+07 B11(12) + 1e+07 B68(4) - I262(12) + I269(12)
   >= -1.9999553e+07
 c138: - 1e+07 B4(12) - 1e+07 B11(12) - 1e+07 B68(4) + I262(12) - I269(12)
   >= -2.9999144e+07
 c139: - 1e+07 B6(14) - 1e+07 B12(16) + 1e+07 B68(4) - I264(14) + I270(16)
   >= -1.9999435e+07
 c140: - 1e+07 B6(14) - 1e+07 B12(16) - 1e+07 B68(4) + I264(14) - I270(16)
   >= -2.9999694e+07
 c141: - 1e+07 B6(14) - 1e+07 B16(13) + 1e+07 B70(2) - I264(14) + I274(14)
   >= -1.999934e+07
 c142: - 1e+07 B6(14) - 1e+07 B16(13) - 1e+07 B70(2) + I264(14) - I274(14)
   >= -2.9999045e+07
 c143: - 1e+07 B4(12) - 1e+07 B18(12) + 1e+07 B71(4) - I262(12) + I276(12)
   >= -1.9999629e+07
 c144: - 1e+07 B4(12) - 1e+07 B18(12) - 1e+07 B71(4) + I262(12) - I276(12)
   >= -2.9999271e+07
 c145: - 1e+07 B5(16) - 1e+07 B19(14) + 1e+07 B71(4) - I263(16) + I277(14)
   >= -1.9999448e+07
 c146: - 1e+07 B5(16) - 1e+07 B19(14) - 1e+07 B71(4) + I263(16) - I277(14)
   >= -2.9999602e+07
 c147: - 1e+07 B4(12) - 1e+07 B23(12) + 1e+07 B74(4) - I262(12) + I281(12)
   >= -1.9999301e+07
 c148: - 1e+07 B4(12) - 1e+07 B23(12) - 1e+07 B74(4) + I262(12) - I281(12)
   >= -2.9999069e+07
 c149: - 1e+07 B5(16) - 1e+07 B24(14) + 1e+07 B74(4) - I263(16) + I282(14)
   >= -1.9999113e+07
 c150: - 1e+07 B5(16) - 1e+07 B24(14) - 1e+07 B74(4) + I263(16) - I282(14)
   >= -2.9999537e+07
 c151: - 1e+07 B6(14) - 1e+07 B27(15) + 1e+07 B76(2) - I264(14) + I285(16)
   >= -1.9999459e+07
 c152: - 1e+07 B6(14) - 1e+07 B27(15) - 1e+07 B76(2) + I264(14) - I285(16)
   >= -2.9999756e+07
 c153: - 1e+07 B4(12) - 1e+07 B30(12) + 1e+07 B77(6) - I262(12) + I288(12)
   >= -1.9999518e+07
 c154: - 1e+07 B4(12) - 1e+07 B30(12) - 1e+07 B77(6) + I262(12) - I288(12)
   >= -2.9999673e+07
 c155: - 1e+07 B5(16) - 1e+07 B31(14) + 1e+07 B77(6) - I263(16) + I289(14)
   >= -1.9999604e+07
 c156: - 1e+07 B5(16) - 1e+07 B31(14) - 1e+07 B77(6) + I263(16) - I289(14)
   >= -2.9999298e+07
 c157: - 1e+07 B6(14) - 1e+07 B32(16) + 1e+07 B77(6) - I264(14) + I290(16)
   >= -1.9999631e+07
 c158: - 1e+07 B6(14) - 1e+07 B32(16) - 1e+07 B77(6) + I264(14) - I290(16)
   >= -2.9999555e+07
 c159: - 1e+07 B7(14) - 1e+07 B14(14) + 1e+07 B84(4) - I265(16) + I272(16)
   >= -1.9999684e+07
 c160: - 1e+07 B7(14) - 1e+07 B14(14) - 1e+07 B84(4) + I265(16) - I272(16)
   >= -2.999965e+07
 c161: - 1e+07 B8(10) - 1e+07 B15(10) + 1e+07 B84(4) - I266(12) + I273(12)
   >= -1.999977e+07
 c162: - 1e+07 B8(10) - 1e+07 B15(10) - 1e+07 B84(4) + I266(12) - I273(12)
   >= -2.9999709e+07
 c163: - 1e+07 B8(10) - 1e+07 B21(10) + 1e+07 B87(2) - I266(12) + I279(12)
   >= -1.9999623e+07
 c164: - 1e+07 B8(10) - 1e+07 B21(10) - 1e+07 B87(2) + I266(12) - I279(12)
   >= -2.9999572e+07
 c165: - 1e+07 B7(14) - 1e+07 B22(13) + 1e+07 B88(2) - I265(16) + I280(14)
   >= -1.9999664e+07
 c166: - 1e+07 B7(14) - 1e+07 B22(13) - 1e+07 B88(2) + I265(16) - I280(14)
   >= -2.9999072e+07
 c167: - 1e+07 B7(14) - 1e+07 B25(16) + 1e+07 B90(4) - I265(16) + I283(18)
   >= -1.9999047e+07
 c168: - 1e+07 B7(14) - 1e+07 B25(16) - 1e+07 B90(4) + I265(16) - I283(18)
   >= -2.999932e+07
 c169: - 1e+07 B8(10) - 1e+07 B26(10) + 1e+07 B90(4) - I266(12) + I284(12)
   >= -1.9999275e+07
 c170: - 1e+07 B8(10) - 1e+07 B26(10) - 1e+07 B90(4) + I266(12) - I284(12)
   >= -2.9999857e+07
 c171: - 1e+07 B7(14) - 1e+07 B29(15) + 1e+07 B91(2) - I265(16) + I287(16)
   >= -1.9999218e+07
 c172: - 1e+07 B7(14) - 1e+07 B29(15) - 1e+07 B91(2) + I265(16) - I287(16)
   >= -2.9999864e+07
 c173: - 1e+07 B10(15) - 1e+07 B12(16) + 1e+07 B98(2) - I268(16) + I270(16)
   >= -1.9999731e+07
 c174: - 1e+07 B10(15) - 1e+07 B12(16) - 1e+07 B98(2) + I268(16) - I270(16)
   >= -2.9999649e+07
 c175: - 1e+07 B10(15) - 1e+07 B16(13) + 1e+07 B100(2) - I268(16)
   + I274(14) >= -1.9999739e+07
 c176: - 1e+07 B10(15) - 1e+07 B16(13) - 1e+07 B100(2) + I268(16)
   - I274(14) >= -2.999888e+07
 c177: - 1e+07 B9(13) - 1e+07 B19(14) + 1e+07 B101(2) - I267(14) + I277(14)
   >= -1.9999523e+07
 c178: - 1e+07 B9(13) - 1e+07 B19(14) - 1e+07 B101(2) + I267(14) - I277(14)
   >= -2.999978e+07
 c179: - 1e+07 B9(13) - 1e+07 B24(14) + 1e+07 B104(2) - I267(14) + I282(14)
   >= -1.9999548e+07
 c180: - 1e+07 B9(13) - 1e+07 B24(14) - 1e+07 B104(2) + I267(14) - I282(14)
   >= -2.9999758e+07
 c181: - 1e+07 B10(15) - 1e+07 B27(15) + 1e+07 B106(2) - I268(16)
   + I285(16) >= -1.9999501e+07
 c182: - 1e+07 B10(15) - 1e+07 B27(15) - 1e+07 B106(2) + I268(16)
   - I285(16) >= -2.9999662e+07
 c183: - 1e+07 B9(13) - 1e+07 B31(14) + 1e+07 B107(4) - I267(14) + I289(14)
   >= -1.999984e+07
 c184: - 1e+07 B9(13) - 1e+07 B31(14) - 1e+07 B107(4) + I267(14) - I289(14)
   >= -2.9999724e+07
 c185: - 1e+07 B10(15) - 1e+07 B32(16) + 1e+07 B107(4) - I268(16)
   + I290(16) >= -1.999973e+07
 c186: - 1e+07 B10(15) - 1e+07 B32(16) - 1e+07 B107(4) + I268(16)
   - I290(16) >= -2.9999462e+07
 c187: - 1e+07 B10(15) - 1e+07 B12(16) + 1e+07 B112(2) + I268(16)
   - I270(16) >= -1.9999649e+07
 c188: - 1e+07 B10(15) - 1e+07 B12(16) - 1e+07 B112(2) - I268(16)
   + I270(16) >= -2.9999731e+07
 c189: - 1e+07 B12(16) - 1e+07 B16(13) + 1e+07 B115(2) - I270(16)
   + I274(14) >= -1.9999532e+07
 c190: - 1e+07 B12(16) - 1e+07 B16(13) - 1e+07 B115(2) + I270(16)
   - I274(14) >= -2.9999325e+07
 c191: - 1e+07 B11(12) - 1e+07 B18(12) + 1e+07 B116(2) - I269(12)
   + I276(12) >= -1.9999566e+07
 c192: - 1e+07 B11(12) - 1e+07 B18(12) - 1e+07 B116(2) + I269(12)
   - I276(12) >= -2.9999673e+07
 c193: - 1e+07 B11(12) - 1e+07 B23(12) + 1e+07 B119(2) - I269(12)
   + I281(12) >= -1.9999006e+07
 c194: - 1e+07 B11(12) - 1e+07 B23(12) - 1e+07 B119(2) + I269(12)
   - I281(12) >= -2.9999484e+07
 c195: - 1e+07 B12(16) - 1e+07 B27(15) + 1e+07 B121(2) - I270(16)
   + I285(16) >= -1.999897e+07
 c196: - 1e+07 B12(16) - 1e+07 B27(15) - 1e+07 B121(2) + I270(16)
   - I285(16) >= -2.9999519e+07
 c197: - 1e+07 B11(12) - 1e+07 B30(12) + 1e+07 B122(4) - I269(12)
   + I288(12) >= -1.9999442e+07
 c198: - 1e+07 B11(12) - 1e+07 B30(12) - 1e+07 B122(4) + I269(12)
   - I288(12) >= -2.9999359e+07
 c199: - 1e+07 B12(16) - 1e+07 B32(16) + 1e+07 B122(4) - I270(16)
   + I290(16) >= -1.9999769e+07
 c200: - 1e+07 B12(16) - 1e+07 B32(16) - 1e+07 B122(4) + I270(16)
   - I290(16) >= -2.9999507e+07
 c201: - 1e+07 B13(16) - 1e+07 B17(15) + 1e+07 B130(2) - I271(18)
   + I275(16) >= -1.9999716e+07
 c202: - 1e+07 B13(16) - 1e+07 B17(15) - 1e+07 B130(2) + I271(18)
   - I275(16) >= -2.9999274e+07
 c203: - 1e+07 B13(16) - 1e+07 B20(14) + 1e+07 B132(4) - I271(18)
   + I278(16) >= -1.9998805e+07
 c204: - 1e+07 B13(16) - 1e+07 B20(14) - 1e+07 B132(4) + I271(18)
   - I278(16) >= -2.999907e+07
 c205: - 1e+07 B15(10) - 1e+07 B21(10) + 1e+07 B132(4) - I273(12)
   + I279(12) >= -1.9999418e+07
 c206: - 1e+07 B15(10) - 1e+07 B21(10) - 1e+07 B132(4) + I273(12)
   - I279(12) >= -2.9999435e+07
 c207: - 1e+07 B14(14) - 1e+07 B22(13) + 1e+07 B133(2) - I272(16)
   + I280(14) >= -1.9999472e+07
 c208: - 1e+07 B14(14) - 1e+07 B22(13) - 1e+07 B133(2) + I272(16)
   - I280(14) >= -2.9999729e+07
 c209: - 1e+07 B14(14) - 1e+07 B25(16) + 1e+07 B135(4) - I272(16)
   + I283(18) >= -1.999975e+07
 c210: - 1e+07 B14(14) - 1e+07 B25(16) - 1e+07 B135(4) + I272(16)
   - I283(18) >= -2.999958e+07
 c211: - 1e+07 B15(10) - 1e+07 B26(10) + 1e+07 B135(4) - I273(12)
   + I284(12) >= -1.9999328e+07
 c212: - 1e+07 B15(10) - 1e+07 B26(10) - 1e+07 B135(4) + I273(12)
   - I284(12) >= -2.9999381e+07
 c213: - 1e+07 B13(16) - 1e+07 B28(13) + 1e+07 B136(4) - I271(18)
   + I286(14) >= -1.999951e+07
 c214: - 1e+07 B13(16) - 1e+07 B28(13) - 1e+07 B136(4) + I271(18)
   - I286(14) >= -2.9999205e+07
 c215: - 1e+07 B14(14) - 1e+07 B29(15) + 1e+07 B136(4) - I272(16)
   + I287(16) >= -1.9999005e+07
 c216: - 1e+07 B14(14) - 1e+07 B29(15) - 1e+07 B136(4) + I272(16)
   - I287(16) >= -2.9999663e+07
 c217: - 1e+07 B13(16) - 1e+07 B17(15) + 1e+07 B144(2) + I271(18)
   - I275(16) >= -1.9999274e+07
 c218: - 1e+07 B13(16) - 1e+07 B17(15) - 1e+07 B144(2) - I271(18)
   + I275(16) >= -2.9999716e+07
 c219: - 1e+07 B17(15) - 1e+07 B20(14) + 1e+07 B147(2) - I275(16)
   + I278(16) >= -1.9999315e+07
 c220: - 1e+07 B17(15) - 1e+07 B20(14) - 1e+07 B147(2) + I275(16)
   - I278(16) >= -2.9999588e+07
 c221: - 1e+07 B16(13) - 1e+07 B27(15) + 1e+07 B151(4) - I274(14)
   + I285(16) >= -1.9999658e+07
 c222: - 1e+07 B16(13) - 1e+07 B27(15) - 1e+07 B151(4) + I274(14)
   - I285(16) >= -2.9999669e+07
 c223: - 1e+07 B17(15) - 1e+07 B28(13) + 1e+07 B151(4) - I275(16)
   + I286(14) >= -1.9999051e+07
 c224: - 1e+07 B17(15) - 1e+07 B28(13) - 1e+07 B151(4) + I275(16)
   - I286(14) >= -2.9999886e+07
 c225: - 1e+07 B16(13) - 1e+07 B32(16) + 1e+07 B152(2) - I274(14)
   + I290(16) >= -1.9999753e+07
 c226: - 1e+07 B16(13) - 1e+07 B32(16) - 1e+07 B152(2) + I274(14)
   - I290(16) >= -2.9999399e+07
 c227: - 1e+07 B18(12) - 1e+07 B23(12) + 1e+07 B164(4) - I276(12)
   + I281(12) >= -1.9999085e+07
 c228: - 1e+07 B18(12) - 1e+07 B23(12) - 1e+07 B164(4) + I276(12)
   - I281(12) >= -2.9999376e+07
 c229: - 1e+07 B19(14) - 1e+07 B24(14) + 1e+07 B164(4) - I277(14)
   + I282(14) >= -1.9999706e+07
 c230: - 1e+07 B19(14) - 1e+07 B24(14) - 1e+07 B164(4) + I277(14)
   - I282(14) >= -2.9999873e+07
 c231: - 1e+07 B18(12) - 1e+07 B30(12) + 1e+07 B167(4) - I276(12)
   + I288(12) >= -1.9999493e+07
 c232: - 1e+07 B18(12) - 1e+07 B30(12) - 1e+07 B167(4) + I276(12)
   - I288(12) >= -2.9999815e+07
 c233: - 1e+07 B19(14) - 1e+07 B31(14) + 1e+07 B167(4) - I277(14)
   + I289(14) >= -1.999965e+07
 c234: - 1e+07 B19(14) - 1e+07 B31(14) - 1e+07 B167(4) + I277(14)
   - I289(14) >= -2.9999628e+07
 c235: - 1e+07 B21(10) - 1e+07 B26(10) + 1e+07 B180(2) - I279(12)
   + I284(12) >= -1.9999592e+07
 c236: - 1e+07 B21(10) - 1e+07 B26(10) - 1e+07 B180(2) + I279(12)
   - I284(12) >= -2.999912e+07
 c237: - 1e+07 B20(14) - 1e+07 B28(13) + 1e+07 B181(2) - I278(16)
   + I286(14) >= -1.9999693e+07
 c238: - 1e+07 B20(14) - 1e+07 B28(13) - 1e+07 B181(2) + I278(16)
   - I286(14) >= -2.999933e+07
 c239: - 1e+07 B22(13) - 1e+07 B25(16) + 1e+07 B195(2) - I280(14)
   + I283(18) >= -1.9999591e+07
 c240: - 1e+07 B22(13) - 1e+07 B25(16) - 1e+07 B195(2) + I280(14)
   - I283(18) >= -2.9999653e+07
 c241: - 1e+07 B22(13) - 1e+07 B29(15) + 1e+07 B196(2) - I280(14)
   + I287(16) >= -1.9999665e+07
 c242: - 1e+07 B22(13) - 1e+07 B29(15) - 1e+07 B196(2) + I280(14)
   - I287(16) >= -2.9999549e+07
 c243: - 1e+07 B23(12) - 1e+07 B30(12) + 1e+07 B212(4) - I281(12)
   + I288(12) >= -1.9999253e+07
 c244: - 1e+07 B23(12) - 1e+07 B30(12) - 1e+07 B212(4) + I281(12)
   - I288(12) >= -2.999945e+07
 c245: - 1e+07 B24(14) - 1e+07 B31(14) + 1e+07 B212(4) - I282(14)
   + I289(14) >= -1.9999435e+07
 c246: - 1e+07 B24(14) - 1e+07 B31(14) - 1e+07 B212(4) + I282(14)
   - I289(14) >= -2.9999484e+07
 c247: - 1e+07 B25(16) - 1e+07 B29(15) + 1e+07 B226(2) - I283(18)
   + I287(16) >= -1.999941e+07
 c248: - 1e+07 B25(16) - 1e+07 B29(15) - 1e+07 B226(2) + I283(18)
   - I287(16) >= -2.9999419e+07
 c249: - 1e+07 B25(16) - 1e+07 B29(15) + 1e+07 B240(2) + I283(18)
   - I287(16) >= -1.9999419e+07
 c250: - 1e+07 B25(16) - 1e+07 B29(15) - 1e+07 B240(2) - I283(18)
   + I287(16) >= -2.999941e+07
 c251: - 1e+07 B27(15) - 1e+07 B32(16) + 1e+07 B242(2) - I285(16)
   + I290(16) >= -1.9999658e+07
 c252: - 1e+07 B27(15) - 1e+07 B32(16) - 1e+07 B242(2) + I285(16)
   - I290(16) >= -2.999927e+07
 c253: - 1e+07 B27(15) - 1e+07 B32(16) + 1e+07 B256(2) + I285(16)
   - I290(16) >= -1.999927e+07
 c254: - 1e+07 B27(15) - 1e+07 B32(16) - 1e+07 B256(2) - I285(16)
   + I290(16) >= -2.9999658e+07
 c255: I258(18) >= 0
 c256: I259(16) >= 0
 c257: I260(16) >= 0
 c258: I261(16) >= 0
 c259: - 480 B4(12) + I262(12) >= 0
 c260: I262(12) >= 0
 c261: - 480 B5(16) + I263(16) >= 0
 c262: I263(16) >= 0
 c263: - 480 B6(14) + I264(14) >= 0
 c264: I264(14) >= 0
 c265: I265(16) >= 0
 c266: I266(12) >= 0
 c267: I267(14) >= 0
 c268: I268(16) >= 0
 c269: - 480 B11(12) + I269(12) >= 0
 c270: I269(12) >= 0
 c271: - 480 B12(16) + I270(16) >= 0
 c272: I270(16) >= 0
 c273: I271(18) >= 0
 c274: I272(16) >= 0
 c275: I273(12) >= 0
 c276: I274(14) >= 0
 c277: I275(16) >= 0
 c278: - 480 B18(12) + I276(12) >= 0
 c279: I276(12) >= 0
 c280: - 480 B19(14) + I277(14) >= 0
 c281: I277(14) >= 0
 c282: I278(16) >= 0
 c283: I279(12) >= 0
 c284: I280(14) >= 0
 c285: - 480 B23(12) + I281(12) >= 0
 c286: I281(12) >= 0
 c287: - 480 B24(14) + I282(14) >= 0
 c288: I282(14) >= 0
 c289: I283(18) >= 0
 c290: I284(12) >= 0
 c291: I285(16) >= 0
 c292: I286(14) >= 0
 c293: I287(16) >= 0
 c294: - 480 B30(12) + I288(12) >= 0
 c295: I288(12) >= 0
 c296: - 480 B31(14) + I289(14) >= 0
 c297: I289(14) >= 0
 c298: - 480 B32(16) + I290(16) >= 0
 c299: I290(16) >= 0
 qc0: I291(1) + 330 B292(5) + 320 B293(5) + 302 B294(5) + 385 B295(5)
   + 290 B296(5) + 380 B297(5) + 327 B298(5) + 335 B299(5) + 344 B300(5)
   + 370 B301(5) + 395 B302(5) + [ - I258(18) * B292(5)
   - I259(16) * B293(5) - I265(16) * B294(5) - I266(12) * B295(5)
   - I271(18) * B296(5) - I272(16) * B297(5) - I273(12) * B298(5)
   - I278(16) * B299(5) - I279(12) * B300(5) - I283(18) * B301(5)
   - I284(12) * B302(5) ] >= 0
Bounds
Binaries
 B0(16) B1(14) B2(15) B3(15) B4(12) B5(16) B6(14) B7(14) B8(10) B9(13)
 B10(15) B11(12) B12(16) B13(16) B14(14) B15(10) B16(13) B17(15) B18(12)
 B19(14) B20(14) B21(10) B22(13) B23(12) B24(14) B25(16) B26(10) B27(15)
 B28(13) B29(15) B30(12) B31(14) B32(16) B33(0) B34(2) B35(0) B36(2) B37(0)
 B38(0) B39(4) B40(2) B41(0) B42(2) B43(2) B44(0) B45(2) B46(4) B47(0)
 B48(2) B49(0) B50(2) B51(0) B52(2) B53(0) B54(2) B55(2) B56(2) B57(2)
 B58(0) B59(2) B60(0) B61(2) B62(2) B63(0) B64(2) B65(0) B66(0) B67(4)
 B68(4) B69(0) B70(2) B71(4) B72(0) B73(0) B74(4) B75(0) B76(2) B77(6)
 B78(0) B79(0) B80(0) B81(0) B82(0) B83(0) B84(4) B85(0) B86(0) B87(2)
 B88(2) B89(0) B90(4) B91(2) B92(0) B93(0) B94(0) B95(0) B96(0) B97(0)
 B98(2) B99(0) B100(2) B101(2) B102(0) B103(0) B104(2) B105(0) B106(2)
 B107(4) B108(0) B109(0) B110(0) B111(0) B112(2) B113(0) B114(0) B115(2)
 B116(2) B117(0) B118(0) B119(2) B120(0) B121(2) B122(4) B123(0) B124(0)
 B125(0) B126(0) B127(0) B128(0) B129(0) B130(2) B131(0) B132(4) B133(2)
 B134(0) B135(4) B136(4) B137(0) B138(0) B139(0) B140(0) B141(0) B142(0)
 B143(0) B144(2) B145(0) B146(0) B147(2) B148(0) B149(0) B150(0) B151(4)
 B152(2) B153(0) B154(0) B155(0) B156(0) B157(0) B158(0) B159(0) B160(0)
 B161(0) B162(0) B163(0) B164(4) B165(0) B166(0) B167(4) B168(0) B169(0)
 B170(0) B171(0) B172(0) B173(0) B174(0) B175(0) B176(0) B177(0) B178(0)
 B179(0) B180(2) B181(2) B182(0) B183(0) B184(0) B185(0) B186(0) B187(0)
 B188(0) B189(0) B190(0) B191(0) B192(0) B193(0) B194(0) B195(2) B196(2)
 B197(0) B198(0) B199(0) B200(0) B201(0) B202(0) B203(0) B204(0) B205(0)
 B206(0) B207(0) B208(0) B209(0) B210(0) B211(0) B212(4) B213(0) B214(0)
 B215(0) B216(0) B217(0) B218(0) B219(0) B220(0) B221(0) B222(0) B223(0)
 B224(0) B225(0) B226(2) B227(0) B228(0) B229(0) B230(0) B231(0) B232(0)
 B233(0) B234(0) B235(0) B236(0) B237(0) B238(0) B239(0) B240(2) B241(0)
 B242(2) B243(0) B244(0) B245(0) B246(0) B247(0) B248(0) B249(0) B250(0)
 B251(0) B252(0) B253(0) B254(0) B255(0) B256(2) B257(0) B292(5) B293(5)
 B294(5) B295(5) B296(5) B297(5) B298(5) B299(5) B300(5) B301(5) B302(5)
Generals
 I258(18) I259(16) I260(16) I261(16) I262(12) I263(16) I264(14) I265(16)
 I266(12) I267(14) I268(16) I269(12) I270(16) I271(18) I272(16) I273(12)
 I274(14) I275(16) I276(12) I277(14) I278(16) I279(12) I280(14) I281(12)
 I282(14) I283(18) I284(12) I285(16) I286(14) I287(16) I288(12) I289(14)
 I290(16) I291(1)
End
